17	4	3
41	23	32	32	15	28	33	
0	0	0	0	0	4	3	8	5	9	5	3	2	3	4
1	10	3	7	10	5	1	7	2	7	1	2	6	12
3	8	6	8	2	6	9	7	9	5	3	3	5	9	17
5	6	0	3	0	9	10	6	9	2	9	2	7	17
4	10	0	0	8	6	6	4	2	2	4	2	8	17
50	10	9	9	10	3	5	6	1	10	5	2	13	17
125	4	2	6	2	6	5	6	2	6	3	2	11	17
250	8	7	3	0	3	2	1	9	1	5	2	10	17
200	8	10	4	4	2	9	5	7	8	6	1	17
100	1	3	5	0	5	3	2	9	4	4	2	14	17
225	10	0	0	2	2	7	8	7	7	8	2	16	17
150	7	0	0	0	2	2	3	7	3	9	2	13	17
4	0	1	6	8	9	6	10	9	4	1	2	15	17
9	6	9	0	0	4	6	9	8	2	7	2	15	17
2	5	7	1	2	4	6	9	5	4	3	2	16	17
3	4	0	0	2	8	6	9	6	3	5	1	17
0	0	0	0	0	4	4	7	6	10	10	0
